
Gurobi 9.1.0 (win64) logging started Sat Jan  2 09:22:49 2021

Changed value of parameter LogFile to logs/iteration10
   Prev:   Default: 
Gurobi Optimizer version 9.1.0 build v9.1.0rc0 (win64)
Thread count: 4 physical cores, 8 logical processors, using up to 8 threads
Optimize a model with 136 rows, 586 columns and 2155 nonzeros
Model fingerprint: 0x045176e4
Coefficient statistics:
  Matrix range     [1e+00, 1e+00]
  Objective range  [9e+02, 3e+03]
  Bounds range     [0e+00, 0e+00]
  RHS range        [1e+00, 1e+00]
Presolve removed 13 rows and 36 columns
Presolve time: 0.00s
Presolved: 123 rows, 550 columns, 2119 nonzeros

Iteration    Objective       Primal Inf.    Dual Inf.      Time
       0    1.9441583e+04   1.230000e+02   0.000000e+00      0s
     266    9.1706833e+04   0.000000e+00   0.000000e+00      0s

Solved in 266 iterations and 0.00 seconds
Optimal objective  9.170683333e+04

Solutionx[24] 1.000000 
x[27] 0.666667 
x[61] 0.333333 
x[64] 1.000000 
x[65] 0.666667 
x[70] 1.000000 
x[72] 1.000000 
x[76] 1.000000 
x[77] 1.000000 
x[82] 1.000000 
x[101] 1.000000 
x[118] 1.000000 
x[119] 0.333333 
x[124] 1.000000 
x[128] 1.000000 
x[130] 1.000000 
x[131] 1.000000 
x[132] 1.000000 
x[134] 1.000000 
x[179] 0.333333 
x[436] 0.333333 
x[731] 0.333333 
x[771] 0.333333 
x[819] 0.333333 
x[821] 0.666667 
x[1772] 1.000000 
x[1808] 0.333333 
x[2387] 0.333333 
x[2863] 0.333333 
x[2915] 0.666667 
x[2944] 0.333333 
x[3092] 0.333333 
x[3178] 0.333333 
x[10635] 0.666667 
x[19863] 1.000000 
x[21791] 1.000000 
x[29780] 0.333333 
x[9961] 0.666667 
x[10828] 1.000000 
x[3365] 0.666667 
x[13128] 0.333333 
x[18798] 1.000000 
x[16166] 0.666667 
x[30408] 0.333333 
x[16501] 1.000000 
x[10403] 1.000000 
x[10912] 1.000000 
x[32137] 1.000000 
x[17723] 0.666667 
x[27735] 0.333333 
x[32032] 1.000000 
x[5984] 0.333333 
x[6136] 1.000000 
x[31320] 0.333333 
x[1255] 0.666667 
x[13630] 0.333333 
x[13863] 0.333333 
x[7474] 0.666667 
x[27762] 1.000000 
x[2977] 0.666667 
x[10384] 1.000000 
x[33395] 1.000000 
x[492] 0.333333 
x[3222] 0.333333 
x[13463] 0.333333 
x[233] 0.666667 
x[7217] 1.000000 
x[20407] 1.000000 
x[9053] 0.333333 
x[23074] 0.666667 
